Data path: /scratch/opt/lxu/CFLG/benchmarks/random_A
Instance: r_20_0.2_34.txt
Result path: /scratch/opt/lxu/CFLG/results/random_A
Solver: Gurobi
Time limit: 3600
Formulation: LEVFP
Cover: Small
julia --project=. src/main.jl /scratch/opt/lxu/CFLG/benchmarks/random_A r_20_0.2_34.txt /scratch/opt/lxu/CFLG/results/random_A Gurobi 3600 LEVFP Small
The latest version of Julia in the `release` channel is 1.11.5+0.x64.linux.gnu. You currently have `1.11.4+0.x64.linux.gnu` installed. Run:

  juliaup update

in your terminal shell to install Julia 1.11.5+0.x64.linux.gnu and update the `release` channel to that version.
/scratch/opt/lxu/CFLG/benchmarks/random_A Gurobi 3600.0 /scratch/opt/lxu/CFLG/results/random_A r_20_0.2_34.txt LEVFP Small
/scratch/opt/lxu/CFLG/benchmarks/random_A/r_20_0.2_34.txt

 read graph
data loaded


after absorb:17 20

max_piece:10
problem_graph/original graph: node: 26/20 edge: 40/34 dlt: 0.2027092374476915 break_avg_len: 0.5221298540319326 break_max_len: 1.671255587357936elapsed CPU time: 0.04577 seconds
Set parameter TokenServer to value "solice01.zib.de"
Set parameter Threads to value 1
Set parameter OutputFlag to value 1
Set parameter MIPGap to value 0.0001
Set parameter MIPGapAbs to value 1
Set parameter TimeLimit to value 3599.95423

 model loaded

Gurobi Optimizer version 12.0.1 build v12.0.1rc0 (linux64 - "Debian GNU/Linux 12 (bookworm)")

CPU model: Intel(R) Xeon(R) Gold 5122 CPU @ 3.60GHz, instruction set [SSE2|AVX|AVX2|AVX512]
Thread count: 8 physical cores, 16 logical processors, using up to 1 threads

Non-default parameters:
TimeLimit  3599.95423
MIPGapAbs  1
Threads  1

Optimize a model with 934 rows, 459 columns and 2380 nonzeros
Model fingerprint: 0x75306180
Variable types: 66 continuous, 393 integer (393 binary)
Coefficient statistics:
  Matrix range     [2e-06, 1e+00]
  Objective range  [1e+00, 1e+00]
  Bounds range     [7e-02, 4e-01]
  RHS range        [2e-02, 7e+00]
Presolve removed 473 rows and 132 columns
Presolve time: 0.02s
Presolved: 461 rows, 327 columns, 2345 nonzeros
Variable types: 64 continuous, 263 integer (263 binary)
Found heuristic solution: objective 64.0000000
Found heuristic solution: objective 63.0000000
Found heuristic solution: objective 62.0000000

Root relaxation: objective 3.646493e+01, 304 iterations, 0.00 seconds (0.00 work units)

    Nodes    |    Current Node    |     Objective Bounds      |     Work
 Expl Unexpl |  Obj  Depth IntInf | Incumbent    BestBd   Gap | It/Node Time

     0     0   36.46493    0   73   62.00000   36.46493  41.2%     -    0s
H    0     0                      52.0000000   36.46493  29.9%     -    0s
H    0     0                      51.0000000   36.46493  28.5%     -    0s
H    0     0                      48.0000000   36.46493  24.0%     -    0s
     0     0   40.39151    0   82   48.00000   40.39151  15.9%     -    0s
H    0     0                      47.0000000   40.39151  14.1%     -    0s
H    0     0                      46.0000000   40.39151  12.2%     -    0s
     0     0   40.55876    0   69   46.00000   40.55876  11.8%     -    0s
     0     0   40.56959    0   75   46.00000   40.56959  11.8%     -    0s
     0     0   40.57064    0   83   46.00000   40.57064  11.8%     -    0s
     0     0   41.07699    0   95   46.00000   41.07699  10.7%     -    0s
     0     0   41.16028    0   87   46.00000   41.16028  10.5%     -    0s
     0     0   41.16452    0   97   46.00000   41.16452  10.5%     -    0s
     0     0   41.16452    0   97   46.00000   41.16452  10.5%     -    0s
     0     0   41.51852    0   89   46.00000   41.51852  9.74%     -    0s
H    0     0                      45.0000000   41.51852  7.74%     -    0s
     0     0   41.53175    0  101   45.00000   41.53175  7.71%     -    0s
     0     0   41.53175    0   96   45.00000   41.53175  7.71%     -    0s
     0     0   41.66667    0   87   45.00000   41.66667  7.41%     -    0s
     0     0   41.69488    0   95   45.00000   41.69488  7.34%     -    0s
     0     0   41.69500    0   98   45.00000   41.69500  7.34%     -    0s
     0     0   41.70370    0   93   45.00000   41.70370  7.33%     -    0s
     0     0   41.70370    0   93   45.00000   41.70370  7.33%     -    0s
     0     0   41.71824    0   93   45.00000   41.71824  7.29%     -    0s
     0     0   41.71824    0   94   45.00000   41.71824  7.29%     -    0s
     0     0   41.71824    0   92   45.00000   41.71824  7.29%     -    0s
     0     0   41.71824    0   77   45.00000   41.71824  7.29%     -    0s
H    0     0                      44.0000000   41.71824  5.19%     -    0s
     0     2   41.71824    0   70   44.00000   41.71824  5.19%     -    0s

Cutting planes:
  Learned: 10
  Gomory: 3
  Cover: 97
  Implied bound: 20
  Clique: 8
  MIR: 91
  StrongCG: 5
  Flow cover: 15
  GUB cover: 13
  RLT: 1
  Relax-and-lift: 9
  BQP: 3

Explored 637 nodes (22934 simplex iterations) in 0.88 seconds (0.56 work units)
Thread count was 1 (of 16 available processors)

Solution count 10: 44 44 45 ... 63

Optimal solution found (tolerance 1.00e-04)
Best objective 4.400000000000e+01, best bound 4.300000000000e+01, gap 2.2727%

User-callback calls 2521, time in user-callback 0.01 sec
Stat(MathOptInterface.OPTIMAL, 44.0, 43.000000000000036, 0.02272727272727192, 0.0, 0.04577, 0.8772518634796143, 637, Main.CFLG.LEVFP, "", #undef)
